p td 40 60
11 39
11 31
11 15
39 8
39 16
34 38
34 12
34 16
38 7
38 4
30 32
30 33
30 22
32 27
32 22
3 35
3 21
3 2
35 36
35 24
7 23
7 27
21 24
21 6
24 19
1 17
1 25
1 13
17 37
17 5
6 18
6 4
19 37
19 12
37 0
18 26
18 29
26 23
26 20
0 10
0 28
10 4
10 13
23 2
15 36
15 29
36 28
9 25
9 14
9 31
25 2
28 5
33 8
33 20
20 13
31 8
16 29
14 27
14 5
12 22
